  1 15 13  6  3  7  4 10 14 11  8  2 12  9  5
 11 15  9  4 12  2  7 13  8  3  1 10  5 14  6
 13  7  2  6  9  3 10 11  4 14 15  5 12  1  8
 13  9 15  4 12  3  6  7 11  8 10  1 14  2  5
  8 12  5  3 10  2  7  1  6 14 13 11  4 15  9
  7 12  1  8 15  3 14 13  2  5  4  6 10 11  9
 13  5 14 15  7  2  9 10  6  8  1  4 12 11  3
 10  3  4 12  9 11  8  5  2  6 15 14  7  1 13
 11  8 13  3 15  4 10  7  1 14 12  2  5  9  6
  3  1  7  9 11 14 10  8 13  5  2 12  4 15  6
  5  8 10 15 14  2  9  4  1 12  6 11  7 13  3
  9 11  2  7 10 13  8  1 14 15  4 12  3  5  6
  4  5  7  8  2 11  3  9 12 13  1  6 15 14 10
  5 12  6  4 14  3  8  1  9 11  7 13  2 15 10
 12 15  5  8  9 14 13  3  1  6 10 11  2  7  4